400
500
349
347
347
346
346
346
345
343
342
342
342
340
340
338
338
337
337
337
336
336
336
334
334
334
334
333
332
331
329
328
327
327
326
325
325
324
324
323
323
322
322
322
322
321
321
320
320
319
317
317
316
316
315
315
314
313
313
313
312
312
311
309
308
308
306
305
305
304
304
303
303
303
302
302
300
299
298
297
296
295
295
294
293
293
292
291
291
290
290
289
288
288
287
286
285
285
285
284
282
281
281
278
278
278
278
277
277
277
277
276
275
272
272
272
271
270
270
270
270
270
269
269
268
268
267
267
266
265
265
264
264
262
261
261
261
261
259
258
258
257
257
257
257
256
255
254
253
252
252
251
248
246
245
244
243
243
241
240
240
240
239
239
239
238
237
236
235
233
233
233
233
231
231
231
229
229
228
226
225
225
223
223
222
221
220
220
219
219
218
216
214
214
213
213
212
211
211
211
211
210
209
208
208
207
207
207
205
203
203
203
202
202
202
201
200
199
198
196
196
196
195
195
195
195
195
193
193
192
192
192
191
191
190
189
188
188
188
186
186
185
185
184
184
184
184
182
181
181
180
180
179
179
177
174
174
172
172
171
170
170
169
166
166
164
163
163
162
162
161
160
159
159
159
157
156
154
154
153
152
151
151
151
149
149
149
148
148
147
147
147
147
146
145
144
144
143
143
142
142
141
140
140
140
139
137
136
135
134
133
133
133
133
132
132
132
131
130
129
126
125
124
123
120
120
119
119
118
117
117
116
115
115
114
114
113
112
112
112
112
110
109
108
107
107
104
103
102
100
99
98
97
96
96
95
95
94
94
93
93
92
92
91
91
90
89
87
87
86
86
85
82
81
81
80
78
78
77
77
77
73
72
72
71
68
67
67
67
66
65
64
62
61
60
56
54
53
53
53
52
50
